networks/zoo_46_406/zoo_46_406.sol
<?xml version = "1.0" encoding="UTF-8" standalone="yes"?>
<CPLEXSolution version="1.2">
 <header
   problemName="networks/zoo_46_406/zoo_46_406.lp"
   solutionName="incumbent"
   solutionIndex="-1"
   objectiveValue="23"
   solutionTypeValue="3"
   solutionTypeString="primal"
   solutionStatusValue="101"
   solutionStatusString="integer optimal solution"
   solutionMethodString="mip"
   primalFeasible="1"
   dualFeasible="1"
   MIPNodes="0"
   MIPIterations="2074"
   writeLevel="3"/>
 <quality
   epInt="1.0000000000000001e-05"
   epRHS="9.9999999999999995e-07"
   maxIntInfeas="0"
   maxPrimalInfeas="8.8817841970012523e-16"
   maxX="4"
   maxSlack="10"/>
 <variables>
  <variable name="Y(7,8)" index="283" value="1"/>
  <variable name="Y(8,9)" index="330" value="1"/>
  <variable name="Y(11,13)" index="472" value="1"/>
  <variable name="Y(18,20)" index="801" value="1"/>
  <variable name="Y(39,21)" index="1768" value="1"/>
  <variable name="Y(45,14)" index="2037" value="1"/>
  <variable name="Y(67,23)" index="3058" value="1"/>
  <variable name="Y(113,4)" index="5155" value="1"/>
  <variable name="Y(135,5)" index="6168" value="1"/>
  <variable name="Y(142,15)" index="6500" value="1"/>
  <variable name="Y(151,1)" index="6900" value="1"/>
  <variable name="Y(176,6)" index="8055" value="1"/>
  <variable name="Y(196,16)" index="8985" value="1"/>
  <variable name="Y(200,2)" index="9155" value="1"/>
  <variable name="Y(226,7)" index="10356" value="1"/>
  <variable name="Y(243,3)" index="11134" value="1"/>
  <variable name="Y(271,10)" index="12429" value="1"/>
  <variable name="Y(293,11)" index="13442" value="1"/>
  <variable name="Y(300,19)" index="13772" value="1"/>
  <variable name="Y(341,17)" index="15656" value="1"/>
  <variable name="Y(354,18)" index="16255" value="1"/>
  <variable name="Y(363,22)" index="16673" value="1"/>
  <variable name="Y(396,12)" index="18181" value="1"/>
  <variable name="X(1,2,200)" index="18875" value="1"/>
  <variable name="X(1,5,8)" index="19089" value="1"/>
  <variable name="X(1,7,226)" index="19713" value="1"/>
  <variable name="X(1,14,113)" index="20006" value="1"/>
  <variable name="X(1,22,39)" index="20338" value="1"/>
  <variable name="X(1,24,151)" index="20856" value="1"/>
  <variable name="X(2,1,39)" index="21150" value="1"/>
  <variable name="X(2,25,200)" index="21717" value="1"/>
  <variable name="X(3,14,45)" index="21968" value="1"/>
  <variable name="X(3,26,243)" index="22572" value="1"/>
  <variable name="X(4,14,67)" index="22802" value="1"/>
  <variable name="X(4,27,113)" index="23254" value="1"/>
  <variable name="X(5,1,151)" index="23698" value="1"/>
  <variable name="X(5,6,8)" index="23961" value="1"/>
  <variable name="X(5,8,7)" index="24366" value="1"/>
  <variable name="X(5,28,135)" index="24900" value="1"/>
  <variable name="X(6,5,151)" index="25322" value="1"/>
  <variable name="X(6,9,8)" index="25585" value="1"/>
  <variable name="X(6,10,271)" index="26254" value="1"/>
  <variable name="X(6,29,176)" index="26565" value="1"/>
  <variable name="X(7,1,113)" index="26908" value="1"/>
  <variable name="X(7,30,226)" index="27427" value="1"/>
  <variable name="X(8,5,135)" index="27742" value="1"/>
  <variable name="X(8,31,7)" index="28020" value="1"/>
  <variable name="X(9,6,151)" index="28570" value="1"/>
  <variable name="X(9,32,8)" index="28833" value="1"/>
  <variable name="X(10,6,176)" index="29407" value="1"/>
  <variable name="X(10,33,271)" index="29908" value="1"/>
  <variable name="X(11,34,293)" index="30336" value="1"/>
  <variable name="X(12,16,196)" index="30645" value="1"/>
  <variable name="X(12,35,396)" index="31251" value="1"/>
  <variable name="X(13,16,200)" index="31461" value="1"/>
  <variable name="X(13,36,11)" index="31678" value="1"/>
  <variable name="X(14,1,226)" index="32299" value="1"/>
  <variable name="X(14,3,243)" index="32722" value="1"/>
  <variable name="X(14,4,113)" index="32998" value="1"/>
  <variable name="X(14,11,293)" index="33584" value="1"/>
  <variable name="X(14,15,142)" index="33839" value="1"/>
  <variable name="X(14,22,396)" index="34499" value="1"/>
  <variable name="X(14,23,67)" index="34576" value="1"/>
  <variable name="X(14,37,45)" index="34960" value="1"/>
  <variable name="X(15,14,243)" index="35564" value="1"/>
  <variable name="X(15,38,142)" index="35869" value="1"/>
  <variable name="X(16,12,396)" index="36529" value="1"/>
  <variable name="X(16,13,11)" index="36550" value="1"/>
  <variable name="X(16,17,341)" index="37286" value="1"/>
  <variable name="X(16,18,300)" index="37651" value="1"/>
  <variable name="X(16,22,200)" index="37957" value="1"/>
  <variable name="X(16,39,196)" index="38359" value="1"/>
  <variable name="X(17,16,300)" index="38869" value="1"/>
  <variable name="X(17,40,341)" index="39316" value="1"/>
  <variable name="X(18,16,341)" index="39722" value="1"/>
  <variable name="X(18,19,300)" index="40087" value="1"/>
  <variable name="X(18,20,18)" index="40211" value="1"/>
  <variable name="X(18,41,354)" index="40953" value="1"/>
  <variable name="X(19,18,341)" index="41346" value="1"/>
  <variable name="X(19,42,300)" index="41711" value="1"/>
  <variable name="X(20,18,354)" index="42171" value="1"/>
  <variable name="X(20,43,18)" index="42241" value="1"/>
  <variable name="X(21,22,363)" index="42992" value="1"/>
  <variable name="X(21,44,39)" index="43074" value="1"/>
  <variable name="X(22,1,200)" index="43641" value="1"/>
  <variable name="X(22,14,293)" index="44140" value="1"/>
  <variable name="X(22,16,396)" index="44649" value="1"/>
  <variable name="X(22,21,39)" index="44698" value="1"/>
  <variable name="X(22,45,363)" index="45428" value="1"/>
  <variable name="X(23,14,396)" index="45867" value="1"/>
  <variable name="X(23,46,67)" index="45944" value="1"/>
  <variable name="C(7,8)" index="46301" value="1"/>
  <variable name="C(8,5)" index="46303" value="1"/>
  <variable name="C(8,6)" index="46304" value="2"/>
  <variable name="C(8,9)" index="46305" value="3"/>
  <variable name="C(11,13)" index="46316" value="1"/>
  <variable name="C(18,20)" index="46342" value="1"/>
  <variable name="C(39,1)" index="46425" value="1"/>
  <variable name="C(39,22)" index="46426" value="2"/>
  <variable name="C(39,21)" index="46427" value="3"/>
  <variable name="C(45,14)" index="46448" value="1"/>
  <variable name="C(67,14)" index="46540" value="1"/>
  <variable name="C(67,23)" index="46541" value="2"/>
  <variable name="C(113,1)" index="46732" value="1"/>
  <variable name="C(113,14)" index="46733" value="2"/>
  <variable name="C(113,4)" index="46734" value="3"/>
  <variable name="C(135,5)" index="46827" value="1"/>
  <variable name="C(142,15)" index="46860" value="1"/>
  <variable name="C(151,6)" index="46907" value="1"/>
  <variable name="C(151,5)" index="46908" value="2"/>
  <variable name="C(151,1)" index="46909" value="3"/>
  <variable name="C(176,6)" index="47045" value="1"/>
  <variable name="C(196,16)" index="47157" value="1"/>
  <variable name="C(200,16)" index="47169" value="1"/>
  <variable name="C(200,22)" index="47170" value="2"/>
  <variable name="C(200,1)" index="47171" value="3"/>
  <variable name="C(200,2)" index="47172" value="3.9999999999999991"/>
  <variable name="C(226,1)" index="47274" value="1"/>
  <variable name="C(226,7)" index="47275" value="2"/>
  <variable name="C(243,14)" index="47333" value="1"/>
  <variable name="C(243,3)" index="47334" value="2"/>
  <variable name="C(271,10)" index="47457" value="1"/>
  <variable name="C(293,14)" index="47543" value="1"/>
  <variable name="C(293,11)" index="47544" value="2"/>
  <variable name="C(300,16)" index="47566" value="1"/>
  <variable name="C(300,18)" index="47567" value="2"/>
  <variable name="C(300,19)" index="47568" value="3"/>
  <variable name="C(341,18)" index="47760" value="1"/>
  <variable name="C(341,16)" index="47761" value="2"/>
  <variable name="C(341,17)" index="47762" value="3"/>
  <variable name="C(354,18)" index="47820" value="1"/>
  <variable name="C(363,22)" index="47855" value="1"/>
  <variable name="C(396,14)" index="47967" value="1"/>
  <variable name="C(396,22)" index="47968" value="2"/>
  <variable name="C(396,16)" index="47969" value="3"/>
  <variable name="C(396,12)" index="47970" value="4"/>
 </variables>
</CPLEXSolution>
